NAME: dupa
TYPE: TSP
COMMENT: User-generated TSP file
DIMENSION: 12
EDGE_WEIGHT_TYPE: EUC_2D
NODE_COORD_SECTION
1 119.0 116.0
2 17.0 123.0
3 58.0 3.0
4 25.0 29.0
5 104.0 76.0
6 117.0 93.0
7 76.0 60.0
8 79.0 9.0
9 114.0 104.0
10 44.0 86.0
11 33.0 92.0
12 35.0 108.0
EOF

